0 3849
2401 3758
4802 3673
7203 3590
9604 3536
12005 3492
14406 3452
16807 3420
19208 3378
21609 3340
24010 3289
26411 3274
28812 3259
31213 3246
33614 3244
36015 3225
38416 3216
40817 3208
43218 3193
45619 3185
48020 3183
57624 3162
60025 3160
62426 3147
64827 3133
67228 3126
69629 3125
72030 3123
74431 3122
76832 3118
103243 3116
127253 3102
129654 3096
132055 3095
134456 3092
136857 3090
139258 3088
160867 3086
194481 3073
196882 3069
199283 3065
211288 3063
218491 3062
276115 3058
278516 3056
470596 3055
472997 3054
475398 3048
477799 3047
528220 3042
789929 3040
